# ---------- Initialize Simulation --------------------- 
variable alat equal 3.914295757
variable xdim equal ${alat}*8
variable T equal 600
variable T2 equal ${T}
variable tstep equal 0.001
variable runtime equal 10000
variable Srandomseed equal 2999

clear
units metal
dimension 3
boundary p p p
atom_style atomic

read_data PdH.dump

group 1 type 1
group 2 type 2

# ---------- Define Interatomic Potential --------------------- 
pair_style	eam/alloy
pair_coeff * * PdH_zhou.eam.alloy Pd H

timestep ${tstep}

# ---------- set random velocity -----------
velocity all create ${T2} ${Srandomseed}

# ----- perform MD -------
fix 1 all npt temp ${T} ${T} 1 iso 0 0 1
neighbor 1.0 bin
neigh_modify  every 1  delay 1  check yes
#neigh_modify one 200

#compute msd 2 msd

#----- print ------
thermo 100 
thermo_style custom step temp press #c_msd[4] press

#dump 1 2 custom 100 hydrogen/*.chkpt id type mass x y z

run ${runtime}
